% File represents an instance of a Composite Structure problem to be solved by a CP framework
% Created on 2025-03-26 10:41:28.153
T = 50;
n = 25;
m = 40;
edges = [(1, 2),
(6, 7),
(11, 12),
(16, 17),
(21, 22),
(2, 3),
(7, 8),
(12, 13),
(17, 18),
(22, 23),
(3, 4),
(8, 9),
(13, 14),
(19, 18),
(24, 23),
(4, 5),
(9, 10),
(15, 14),
(20, 19),
(25, 24),
(6, 1),
(6, 11),
(11, 16),
(16, 21),
(7, 2),
(7, 12),
(12, 17),
(17, 22),
(8, 3),
(8, 13),
(13, 18),
(18, 23),
(9, 4),
(9, 14),
(19, 14),
(19, 24),
(10, 5),
(15, 10),
(20, 15),
(20, 25)];
counts = [|4, 20, 4, 16,
|4, 18, 4, 12,
|4, 16, 4, 12,
|4, 14, 4, 10,
|4, 14, 4, 6,
|6, 22, 6, 16,
|4, 22, 4, 14,
|4, 16, 4, 14,
|4, 16, 4, 12,
|4, 16, 4, 8,
|4, 22, 4, 16,
|4, 20, 4, 14,
|4, 14, 4, 14,
|4, 14, 4, 12,
|4, 16, 4, 14,
|4, 16, 4, 16,
|4, 14, 4, 14,
|2, 12, 2, 14,
|4, 14, 4, 14,
|4, 16, 4, 16,
|4, 16, 4, 12,
|4, 14, 4, 10,
|2, 12, 2, 10,
|2, 14, 2, 14,
|2, 16, 2, 14|];
